     Program PWSCF v.6.7MaX starts on  7Jul2024 at 20:44:29

     R & G space division:  proc/nbgrp/npool/nimage =       4
     Waiting for input...
     Reading input from standard input

     Current dimensions of program PWSCF are:
     Max number of different atomic species (ntypx) = 10
     Max number of k-points (npk) =  40000
     Max angular momentum in pseudopotentials (lmaxx) =  3
     file Cr.pbe-spn-rrkjus_psl.1.0.0.UPF: wavefunction(s)  3P renormalized
     file Hg.pbe-spn-rrkjus_psl.1.0.0.UPF: wavefunction(s)  5P renormalized

     Message from routine setup:
     using ibrav=0 with symmetry is DISCOURAGED, use correct ibrav instead

     bravais-lattice index     =            0
     lattice parameter (alat)  =      14.5738  a.u.
     unit-cell volume          =    2188.7812 (a.u.)^3
     number of atoms/cell      =           14
     number of atomic types    =            3
     number of electrons       =       144.00
     number of Kohn-Sham states=          120
     kinetic-energy cutoff     =      50.0000  Ry
     charge density cutoff     =     320.0000  Ry
     scf convergence threshold =      2.8E-07
     mixing beta               =       0.4000
     number of iterations used =            8  plain     mixing
     Exchange-correlation= PBE
                           (   1   4   3   4   0   0   0)

     celldm(1)=  14.573788  celldm(2)=   0.000000  celldm(3)=   0.000000
     celldm(4)=   0.000000  celldm(5)=   0.000000  celldm(6)=   0.000000

     crystal axes: (cart. coord. in units of alat)
               a(1) = (   0.288675   0.816497   0.500000 )
               a(2) = (   0.288675   0.816497  -0.500000 )
               a(3) = (  -0.577350   0.816497   0.000000 )

     reciprocal axes: (cart. coord. in units 2 pi/alat)
               b(1) = (  0.577350  0.408248  1.000000 )
               b(2) = (  0.577350  0.408248 -1.000000 )
               b(3) = ( -1.154701  0.408248  0.000000 )

     PseudoPot. # 1 for Cr read from file:
     /home/hafidz/Documents/DFT/Pseudopotential/rrkjus/Cr.pbe-spn-rrkjus_psl.1.0.0.UPF
     MD5 check sum: ac5cc0a679be6eadbc07e1887cd97696
     Pseudo is Ultrasoft + core correction, Zval = 14.0
     Generated using "atomic" code by A. Dal Corso  v.5.1.2
     Using radial grid of 1183 points,  6 beta functions with:
                l(1) =   0
                l(2) =   0
                l(3) =   1
                l(4) =   1
                l(5) =   2
                l(6) =   2
     Q(r) pseudized with 0 coefficients

     PseudoPot. # 2 for Hg read from file:
     /home/hafidz/Documents/DFT/Pseudopotential/rrkjus/Hg.pbe-spn-rrkjus_psl.1.0.0.UPF
     MD5 check sum: 65689333edf7621de08780c51a426de3
     Pseudo is Ultrasoft + core correction, Zval = 20.0
     Generated using "atomic" code by A. Dal Corso  v.5.1.2
     Using radial grid of 1279 points,  6 beta functions with:
                l(1) =   0
                l(2) =   0
                l(3) =   1
                l(4) =   1
                l(5) =   2
                l(6) =   2
     Q(r) pseudized with 0 coefficients

     PseudoPot. # 3 for Se read from file:
     /home/hafidz/Documents/DFT/Pseudopotential/rrkjus/Se.pbe-n-rrkjus_psl.1.0.0.UPF
     MD5 check sum: 5f5e5c15c95449acb3b45b44a6529d2d
     Pseudo is Ultrasoft + core correction, Zval =  6.0
     Generated using "atomic" code by A. Dal Corso  v.5.1.2
     Using radial grid of 1211 points,  4 beta functions with:
                l(1) =   0
                l(2) =   0
                l(3) =   1
                l(4) =   1
     Q(r) pseudized with 0 coefficients

     atomic species   valence    mass     pseudopotential
        Cr            14.00    51.99610     Cr( 1.00)
        Hg            20.00   200.59200     Hg( 1.00)
        Se             6.00    78.97100     Se( 1.00)

     Starting magnetic structure
     atomic species   magnetization
        Cr           0.100
        Hg           0.000
        Se           0.000

      4 Sym. Ops., with inversion, found ( 2 have fractional translation)

   Cartesian axes

     site n.     atom                  positions (alat units)
         1           Cr  tau(   1) = (   0.1443375   1.3268070   0.2500000  )
         2           Cr  tau(   2) = (  -0.2886752   1.3268070   0.0000000  )
         3           Cr  tau(   3) = (  -0.0000000   0.9185587   0.0000000  )
         4           Cr  tau(   4) = (   0.1443375   1.3268070  -0.2500000  )
         5           Hg  tau(   5) = (   0.0000012  -0.0000004   0.0000000  )
         6           Hg  tau(   6) = (  -0.0000013   1.8371178   0.0000000  )
         7           Se  tau(   7) = (   0.1243423   0.7002960   0.2153674  )
         8           Se  tau(   8) = (  -0.2486845   0.7002958   0.0000000  )
         9           Se  tau(   9) = (  -0.1243423   1.1368214  -0.2153674  )
        10           Se  tau(  10) = (   0.1243423   0.7002960  -0.2153674  )
        11           Se  tau(  11) = (  -0.0000002   0.3486022   0.0000000  )
        12           Se  tau(  12) = (  -0.1243423   1.1368214   0.2153674  )
        13           Se  tau(  13) = (   0.0000001   1.4885152   0.0000000  )
        14           Se  tau(  14) = (   0.2486844   1.1368216   0.0000000  )

     number of k points=    39  Marzari-Vanderbilt smearing, width (Ry)=  0.1000
                       cart. coord. in units 2pi/alat
        k(    1) = (   0.0000000   0.0000000   0.0000000), wk =   0.0080000
        k(    2) = (  -0.2309401   0.0816496   0.0000000), wk =   0.0160000
        k(    3) = (  -0.4618802   0.1632993   0.0000000), wk =   0.0160000
        k(    4) = (   0.1154701   0.0816497  -0.2000000), wk =   0.0320000
        k(    5) = (  -0.1154701   0.1632993  -0.2000000), wk =   0.0320000
        k(    6) = (  -0.3464102   0.2449489  -0.2000000), wk =   0.0320000
        k(    7) = (   0.5773503  -0.0816496  -0.2000000), wk =   0.0320000
        k(    8) = (   0.3464102   0.0000000  -0.2000000), wk =   0.0320000
        k(    9) = (   0.2309401   0.1632993  -0.4000000), wk =   0.0320000
        k(   10) = (   0.0000000   0.2449490  -0.4000000), wk =   0.0320000
        k(   11) = (  -0.2309401   0.3265986  -0.4000000), wk =   0.0320000
        k(   12) = (   0.6928203   0.0000000  -0.4000000), wk =   0.0320000
        k(   13) = (   0.4618802   0.0816497  -0.4000000), wk =   0.0320000
        k(   14) = (   0.2309401   0.1632993   0.0000000), wk =   0.0160000
        k(   15) = (   0.0000000   0.2449490   0.0000000), wk =   0.0160000
        k(   16) = (  -0.2309401   0.3265986   0.0000000), wk =   0.0160000
        k(   17) = (   0.6928203   0.0000000   0.0000000), wk =   0.0160000
        k(   18) = (   0.4618802   0.0816497   0.0000000), wk =   0.0160000
        k(   19) = (   0.3464102   0.2449490  -0.2000000), wk =   0.0320000
        k(   20) = (   0.1154701   0.3265986  -0.2000000), wk =   0.0320000
        k(   21) = (  -0.1154701   0.4082483  -0.2000000), wk =   0.0320000
        k(   22) = (   0.8082904   0.0816497  -0.2000000), wk =   0.0320000
        k(   23) = (   0.5773503   0.1632993  -0.2000000), wk =   0.0320000
        k(   24) = (  -0.1154701  -0.0816497   0.6000000), wk =   0.0320000
        k(   25) = (  -0.3464102  -0.0000000   0.6000000), wk =   0.0320000
        k(   26) = (  -0.5773503   0.0816496   0.6000000), wk =   0.0320000
        k(   27) = (   0.3464102  -0.2449489   0.6000000), wk =   0.0320000
        k(   28) = (   0.1154701  -0.1632993   0.6000000), wk =   0.0320000
        k(   29) = (   0.0000000   0.0000000   0.4000000), wk =   0.0160000
        k(   30) = (  -0.2309401   0.0816496   0.4000000), wk =   0.0320000
        k(   31) = (  -0.4618802   0.1632993   0.4000000), wk =   0.0320000
        k(   32) = (   0.4618802   0.3265986   0.0000000), wk =   0.0160000
        k(   33) = (   0.2309401   0.4082483   0.0000000), wk =   0.0160000
        k(   34) = (   0.0000000   0.4898979   0.0000000), wk =   0.0160000
        k(   35) = (   0.9237604   0.1632994   0.0000000), wk =   0.0160000
        k(   36) = (   0.6928203   0.2449490   0.0000000), wk =   0.0160000
        k(   37) = (   0.0000000   0.0000000   0.8000001), wk =   0.0160000
        k(   38) = (  -0.2309401   0.0816496   0.8000001), wk =   0.0320000
        k(   39) = (  -0.4618802   0.1632993   0.8000001), wk =   0.0320000

     Check: negative core charge=   -0.000002
     Generating pointlists ...
     new r_m :   0.1365 (alat units)  1.9892 (a.u.) for type    1
     new r_m :   0.1438 (alat units)  2.0957 (a.u.) for type    2
     new r_m :   0.1365 (alat units)  1.9892 (a.u.) for type    3

     Initial potential from superposition of free atoms

     starting charge  143.99614, renormalised to  144.00000
     Starting wfcs are   92 randomized atomic wfcs +   28 random wfcs

     Self-consistent Calculation

     iteration #  1     ecut=    50.00 Ry     beta= 0.40
     Davidson diagonalization with overlap
     ethr =  1.00E-02,  avg # of iterations =  6.0

     total energy              =   -1501.14623573 Ry
     estimated scf accuracy    <       1.94799401 Ry

     total magnetization       =     6.02 Bohr mag/cell
     absolute magnetization    =     7.23 Bohr mag/cell

[...]

     total energy              =   -1502.15019493 Ry
     estimated scf accuracy    <       0.00000214 Ry

[...]

     iteration # 17     ecut=    50.00 Ry     beta= 0.40
     Davidson diagonalization with overlap
     ethr =  4.69E-10,  avg # of iterations =  2.0

     Magnetic moment per site:
     atom:    1    charge:   12.1340    magn:    2.6850    constr:    0.0000
     atom:    2    charge:   12.1341    magn:    2.6851    constr:    0.0000
     atom:    3    charge:   12.1340    magn:    2.6850    constr:    0.0000
     atom:    4    charge:   12.1340    magn:    2.6850    constr:    0.0000
     atom:    5    charge:   17.6191    magn:   -0.0051    constr:    0.0000
     atom:    6    charge:   17.6191    magn:   -0.0051    constr:    0.0000
     atom:    7    charge:    3.8760    magn:   -0.1444    constr:    0.0000
     atom:    8    charge:    3.8760    magn:   -0.1444    constr:    0.0000
     atom:    9    charge:    3.8760    magn:   -0.1444    constr:    0.0000
     atom:   10    charge:    3.8760    magn:   -0.1444    constr:    0.0000
     atom:   11    charge:    3.8760    magn:   -0.1444    constr:    0.0000
     atom:   12    charge:    3.8760    magn:   -0.1444    constr:    0.0000
     atom:   13    charge:    3.8760    magn:   -0.1444    constr:    0.0000
     atom:   14    charge:    3.8760    magn:   -0.1444    constr:    0.0000

     End of self-consistent calculation

 ------ SPIN UP ------------

          k = 0.0000 0.0000 0.0000 ( 13107 PWs)   bands (ev):

  -106.7954-106.7954 -64.8839 -64.8835 -64.8835 -64.8835 -55.1046 -55.1045
   -55.1045 -55.1044 -55.1043 -55.1043 -36.2855 -36.2785 -36.2784 -36.2784
   -36.2739 -36.2739 -36.2725 -36.2725 -36.2725 -36.2711 -36.2711 -36.2711
    -5.9303  -5.0075  -4.4922  -4.4922  -4.4922  -4.4506  -4.4506  -4.4506
     1.2855   1.2855   1.2855   1.3533   1.3533   1.3719   1.3719   1.3719
     1.3913   1.4788   1.4788   2.0694   2.7588   2.7588   2.7588   4.1329
     4.1329   4.4652   4.4652   5.1105   5.1105   5.1105   5.5757   5.5757
     5.5757   5.6706   5.6706   5.6706   6.0057   6.3494   6.3494   6.3494
     6.4001   6.4001   6.7618   6.7618   6.7618   6.8663   6.8663   6.8663
     6.9719   6.9719   6.9719   7.9009   7.9009   7.9009   8.5307   9.2703
     9.6336   9.6336   9.6336  10.0355  10.0355  10.0355  10.1279  10.1279
    11.5850  11.5850  11.5851  12.6211  12.6211  12.6211  12.6647  14.3833
    14.3834  14.3834  14.9115  14.9115  15.8762  15.8762  15.8762  16.0760
    16.0760  16.0760  16.1602  16.1602  18.2304  18.2773  19.0406  19.0407
    19.0407  19.9391  19.9391  19.9391  20.1912  20.3478  20.3478  20.7459

          k =-0.2309 0.0816 0.0000 ( 13128 PWs)   bands (ev):

[...]

 ------ SPIN DOWN ----------

[...]

          k = 0.0000 0.0000 0.8000 ( 13050 PWs)   bands (ev):

[...]

          k =-0.4619 0.1633 0.8000 ( 13046 PWs)   bands (ev):

  -106.8075-106.8074 -62.0194 -62.0191 -62.0190 -62.0190 -55.1175 -55.1173
   -55.1164 -55.1163 -55.1160 -55.1157 -33.3477 -33.3433 -33.3399 -33.3398
   -33.2703 -33.2700 -33.2697 -33.2688 -33.2684 -33.2679 -33.2676 -33.2666
    -5.7029  -5.4071  -4.8598  -4.6879  -4.6707  -4.6038  -4.5672  -4.5634
     1.0280   1.0975   1.2527   1.2613   1.3017   1.3278   1.4030   1.4034
     1.4502   1.4512   2.5712   2.6674   3.6601   3.7899   3.9634   4.1392
     4.3252   4.4319   4.6002   4.7878   4.9051   5.0043   5.2273   5.5472
     5.6138   5.6635   5.6730   5.9290   6.0563   6.4207   6.5504   6.7118
     6.8130   7.2364   8.9383   9.1014   9.2486   9.3771   9.6061   9.6195
     9.6988   9.7336   9.7778   9.8328   9.9348   9.9355  10.2324  10.3853
    10.5759  10.5962  10.6827  10.6900  10.8303  11.1046  11.3194  11.4363
    13.1169  13.4577  13.6457  13.8005  14.0207  14.3267  14.3281  14.5530
    14.8940  15.1039  15.4117  15.4442  15.7976  16.3639  16.5526  16.6254
    16.6343  16.9426  17.0942  17.5180  17.5753  17.6258  17.6354  17.8672
    18.0444  18.1890  18.1934  18.4541  18.8307  18.9091  19.1476  19.1766

     the Fermi energy is     8.0050 ev

!    total energy              =   -1502.15019513 Ry
     estimated scf accuracy    <       0.00000005 Ry
     smearing contrib. (-TS)   =       0.22142972 Ry
     internal energy E=F+TS    =   -1502.37162485 Ry

     The total energy is F=E-TS. E is the sum of the following terms:
     one-electron contribution =    -907.51750473 Ry
     hartree contribution      =     489.28692569 Ry
     xc contribution           =    -219.20372147 Ry
     ewald contribution        =    -864.93732435 Ry

     total magnetization       =    10.40 Bohr mag/cell
     absolute magnetization    =    13.64 Bohr mag/cell

     convergence has been achieved in  17 iterations

     Forces acting on atoms (cartesian axes, Ry/au):

     atom    1 type  1   force =     0.00000000    0.00000000    0.00000000
     atom    2 type  1   force =     0.00000000    0.00000000    0.00000000
     atom    3 type  1   force =     0.00000000    0.00000000    0.00000000
     atom    4 type  1   force =     0.00000000    0.00000000    0.00000000
     atom    5 type  2   force =    -0.00000049    0.00001811    0.00000000
     atom    6 type  2   force =     0.00000049   -0.00001811    0.00000000
     atom    7 type  3   force =     0.00000055    0.00000051   -0.00000818
     atom    8 type  3   force =     0.00000549    0.00000382    0.00000000
     atom    9 type  3   force =    -0.00000055   -0.00000051    0.00000818
     atom   10 type  3   force =     0.00000055    0.00000051    0.00000818
     atom   11 type  3   force =     0.00000531    0.00000248    0.00000000
     atom   12 type  3   force =    -0.00000055   -0.00000051   -0.00000818
     atom   13 type  3   force =    -0.00000531   -0.00000248    0.00000000
     atom   14 type  3   force =    -0.00000549   -0.00000382    0.00000000

     Total force =     0.000033     Total SCF correction =     0.000216
     SCF correction compared to forces is large: reduce conv_thr to get better values

     Computing stress (Cartesian axis) and pressure

          total   stress  (Ry/bohr**3)                   (kbar)     P=      -25.79
  -0.00017535   0.00000001   0.00000000          -25.80        0.00        0.00
   0.00000001  -0.00017535   0.00000000            0.00      -25.80        0.00
   0.00000000   0.00000000  -0.00017533            0.00        0.00      -25.79

     Writing output data file /home/hafidz/Documents/PKL/Kalkulasi-DFT/Project-Shift-Current-Multi-Weyl-Semimetal/Cr2HgSe4/Primitive-2/outdir/Cr2HgSe4-SC-Project-2.save/

     General routines

     Parallel routines

   This run was terminated on:  22: 3: 8   7Jul2024

   JOB DONE.