     Program PWSCF v.6.7MaX starts on  7Jul2024 at 14:13:48

     R & G space division:  proc/nbgrp/npool/nimage =       4
     Waiting for input...
     Reading input from standard input

     Current dimensions of program PWSCF are:
     Max number of different atomic species (ntypx) = 10
     Max number of k-points (npk) =  40000
     Max angular momentum in pseudopotentials (lmaxx) =  3
     file Cr.pbe-spn-rrkjus_psl.1.0.0.UPF: wavefunction(s)  3P renormalized
     file Hg.pbe-spn-rrkjus_psl.1.0.0.UPF: wavefunction(s)  5P renormalized

     Message from routine setup:
     using ibrav=0 with symmetry is DISCOURAGED, use correct ibrav instead

     bravais-lattice index     =            0
     lattice parameter (alat)  =      14.5738  a.u.
     unit-cell volume          =    2188.7812 (a.u.)^3
     number of atoms/cell      =           14
     number of atomic types    =            3
     number of electrons       =       144.00
     number of Kohn-Sham states=          120
     kinetic-energy cutoff     =      50.0000  Ry
     charge density cutoff     =     320.0000  Ry
     scf convergence threshold =      2.8E-07
     mixing beta               =       0.4000
     number of iterations used =            8  plain     mixing
     energy convergence thresh.=      1.4E-04
     force convergence thresh. =      1.0E-04
     Exchange-correlation= PBE
                           (   1   4   3   4   0   0   0)
     nstep                     =           50

     celldm(1)=  14.573788  celldm(2)=   0.000000  celldm(3)=   0.000000
     celldm(4)=   0.000000  celldm(5)=   0.000000  celldm(6)=   0.000000

     crystal axes: (cart. coord. in units of alat)
               a(1) = (   0.288675   0.816497   0.500000 )
               a(2) = (   0.288675   0.816497  -0.500000 )
               a(3) = (  -0.577350   0.816497   0.000000 )

     reciprocal axes: (cart. coord. in units 2 pi/alat)
               b(1) = (  0.577350  0.408248  1.000000 )
               b(2) = (  0.577350  0.408248 -1.000000 )
               b(3) = ( -1.154701  0.408248  0.000000 )

     PseudoPot. # 1 for Cr read from file:
     /home/hafidz/Documents/DFT/Pseudopotential/rrkjus/Cr.pbe-spn-rrkjus_psl.1.0.0.UPF
     MD5 check sum: ac5cc0a679be6eadbc07e1887cd97696
     Pseudo is Ultrasoft + core correction, Zval = 14.0
     Generated using "atomic" code by A. Dal Corso  v.5.1.2
     Using radial grid of 1183 points,  6 beta functions with:
                l(1) =   0
                l(2) =   0
                l(3) =   1
                l(4) =   1
                l(5) =   2
                l(6) =   2
     Q(r) pseudized with 0 coefficients

     PseudoPot. # 2 for Hg read from file:
     /home/hafidz/Documents/DFT/Pseudopotential/rrkjus/Hg.pbe-spn-rrkjus_psl.1.0.0.UPF
     MD5 check sum: 65689333edf7621de08780c51a426de3
     Pseudo is Ultrasoft + core correction, Zval = 20.0
     Generated using "atomic" code by A. Dal Corso  v.5.1.2
     Using radial grid of 1279 points,  6 beta functions with:
                l(1) =   0
                l(2) =   0
                l(3) =   1
                l(4) =   1
                l(5) =   2
                l(6) =   2
     Q(r) pseudized with 0 coefficients

     PseudoPot. # 3 for Se read from file:
     /home/hafidz/Documents/DFT/Pseudopotential/rrkjus/Se.pbe-n-rrkjus_psl.1.0.0.UPF
     MD5 check sum: 5f5e5c15c95449acb3b45b44a6529d2d
     Pseudo is Ultrasoft + core correction, Zval =  6.0
     Generated using "atomic" code by A. Dal Corso  v.5.1.2
     Using radial grid of 1211 points,  4 beta functions with:
                l(1) =   0
                l(2) =   0
                l(3) =   1
                l(4) =   1
     Q(r) pseudized with 0 coefficients

     atomic species   valence    mass     pseudopotential
        Cr            14.00    51.99610     Cr( 1.00)
        Hg            20.00   200.59200     Hg( 1.00)
        Se             6.00    78.97100     Se( 1.00)

     Starting magnetic structure
     atomic species   magnetization
        Cr           0.100
        Hg           0.000
        Se           0.000

      4 Sym. Ops., with inversion, found ( 2 have fractional translation)

   Cartesian axes

     site n.     atom                  positions (alat units)
         1           Cr  tau(   1) = (   0.1443375   1.3268070   0.2500000  )
         2           Cr  tau(   2) = (  -0.2886752   1.3268070   0.0000000  )
         3           Cr  tau(   3) = (  -0.0000000   0.9185587   0.0000000  )
         4           Cr  tau(   4) = (   0.1443375   1.3268070  -0.2500000  )
         5           Hg  tau(   5) = (   0.0000000   0.0000000   0.0000000  )
         6           Hg  tau(   6) = (  -0.0000001   1.8371174   0.0000000  )
         7           Se  tau(   7) = (   0.1251083   0.7008374   0.2166940  )
         8           Se  tau(   8) = (  -0.2502167   0.7008374   0.0000000  )
         9           Se  tau(   9) = (  -0.1251084   1.1362800  -0.2166940  )
        10           Se  tau(  10) = (   0.1251083   0.7008374  -0.2166940  )
        11           Se  tau(  11) = (  -0.0000000   0.3469776   0.0000000  )
        12           Se  tau(  12) = (  -0.1251084   1.1362800   0.2166940  )
        13           Se  tau(  13) = (  -0.0000001   1.4901398   0.0000000  )
        14           Se  tau(  14) = (   0.2502166   1.1362800   0.0000000  )

     number of k points=    39  Marzari-Vanderbilt smearing, width (Ry)=  0.1000
                       cart. coord. in units 2pi/alat
        k(    1) = (   0.0000000   0.0000000   0.0000000), wk =   0.0080000
        k(    2) = (  -0.2309401   0.0816496   0.0000000), wk =   0.0160000
        k(    3) = (  -0.4618802   0.1632993   0.0000000), wk =   0.0160000
        k(    4) = (   0.1154701   0.0816497  -0.2000000), wk =   0.0320000
        k(    5) = (  -0.1154701   0.1632993  -0.2000000), wk =   0.0320000
        k(    6) = (  -0.3464102   0.2449489  -0.2000000), wk =   0.0320000
        k(    7) = (   0.5773503  -0.0816496  -0.2000000), wk =   0.0320000
        k(    8) = (   0.3464102   0.0000000  -0.2000000), wk =   0.0320000
        k(    9) = (   0.2309401   0.1632993  -0.4000000), wk =   0.0320000
        k(   10) = (   0.0000000   0.2449490  -0.4000000), wk =   0.0320000
        k(   11) = (  -0.2309401   0.3265986  -0.4000000), wk =   0.0320000
        k(   12) = (   0.6928203   0.0000000  -0.4000000), wk =   0.0320000
        k(   13) = (   0.4618802   0.0816497  -0.4000000), wk =   0.0320000
        k(   14) = (   0.2309401   0.1632993   0.0000000), wk =   0.0160000
        k(   15) = (   0.0000000   0.2449490   0.0000000), wk =   0.0160000
        k(   16) = (  -0.2309401   0.3265986   0.0000000), wk =   0.0160000
        k(   17) = (   0.6928203   0.0000000   0.0000000), wk =   0.0160000
        k(   18) = (   0.4618802   0.0816497   0.0000000), wk =   0.0160000
        k(   19) = (   0.3464102   0.2449490  -0.2000000), wk =   0.0320000
        k(   20) = (   0.1154701   0.3265986  -0.2000000), wk =   0.0320000
        k(   21) = (  -0.1154701   0.4082483  -0.2000000), wk =   0.0320000
        k(   22) = (   0.8082904   0.0816497  -0.2000000), wk =   0.0320000
        k(   23) = (   0.5773503   0.1632993  -0.2000000), wk =   0.0320000
        k(   24) = (  -0.1154701  -0.0816497   0.6000000), wk =   0.0320000
        k(   25) = (  -0.3464102  -0.0000000   0.6000000), wk =   0.0320000
        k(   26) = (  -0.5773503   0.0816496   0.6000000), wk =   0.0320000
        k(   27) = (   0.3464102  -0.2449489   0.6000000), wk =   0.0320000
        k(   28) = (   0.1154701  -0.1632993   0.6000000), wk =   0.0320000
        k(   29) = (   0.0000000   0.0000000   0.4000000), wk =   0.0160000
        k(   30) = (  -0.2309401   0.0816496   0.4000000), wk =   0.0320000
        k(   31) = (  -0.4618802   0.1632993   0.4000000), wk =   0.0320000
        k(   32) = (   0.4618802   0.3265986   0.0000000), wk =   0.0160000
        k(   33) = (   0.2309401   0.4082483   0.0000000), wk =   0.0160000
        k(   34) = (   0.0000000   0.4898979   0.0000000), wk =   0.0160000
        k(   35) = (   0.9237604   0.1632994   0.0000000), wk =   0.0160000
        k(   36) = (   0.6928203   0.2449490   0.0000000), wk =   0.0160000
        k(   37) = (   0.0000000   0.0000000   0.8000001), wk =   0.0160000
        k(   38) = (  -0.2309401   0.0816496   0.8000001), wk =   0.0320000
        k(   39) = (  -0.4618802   0.1632993   0.8000001), wk =   0.0320000

     Check: negative core charge=   -0.000002
     Generating pointlists ...
     new r_m :   0.1368 (alat units)  1.9940 (a.u.) for type    1
     new r_m :   0.1431 (alat units)  2.0859 (a.u.) for type    2
     new r_m :   0.1368 (alat units)  1.9940 (a.u.) for type    3

     Initial potential from superposition of free atoms

     starting charge  143.99614, renormalised to  144.00000
     Starting wfcs are   92 randomized atomic wfcs +   28 random wfcs

     Self-consistent Calculation

     iteration #  1     ecut=    50.00 Ry     beta= 0.40
     Davidson diagonalization with overlap
     ethr =  1.00E-02,  avg # of iterations =  6.2

     total energy              =   -1501.16441314 Ry
     estimated scf accuracy    <       1.90935931 Ry

     total magnetization       =     6.03 Bohr mag/cell
     absolute magnetization    =     7.26 Bohr mag/cell

[...]

     Magnetic moment per site:
     atom:    1    charge:   12.1383    magn:    2.6970    constr:    0.0000
     atom:    2    charge:   12.1384    magn:    2.6971    constr:    0.0000
     atom:    3    charge:   12.1383    magn:    2.6970    constr:    0.0000
     atom:    4    charge:   12.1383    magn:    2.6970    constr:    0.0000
     atom:    5    charge:   17.5889    magn:   -0.0061    constr:    0.0000
     atom:    6    charge:   17.5889    magn:   -0.0061    constr:    0.0000
     atom:    7    charge:    3.8913    magn:   -0.1472    constr:    0.0000
     atom:    8    charge:    3.8913    magn:   -0.1472    constr:    0.0000
     atom:    9    charge:    3.8913    magn:   -0.1472    constr:    0.0000
     atom:   10    charge:    3.8913    magn:   -0.1472    constr:    0.0000
     atom:   11    charge:    3.8913    magn:   -0.1472    constr:    0.0000
     atom:   12    charge:    3.8913    magn:   -0.1472    constr:    0.0000
     atom:   13    charge:    3.8913    magn:   -0.1472    constr:    0.0000
     atom:   14    charge:    3.8913    magn:   -0.1472    constr:    0.0000

     End of self-consistent calculation

 ------ SPIN UP ------------

          k = 0.0000 0.0000 0.0000 ( 13107 PWs)   bands (ev):

  -106.8205-106.8205 -64.8970 -64.8966 -64.8966 -64.8966 -55.1300 -55.1299
   -55.1299 -55.1298 -55.1298 -55.1297 -36.2979 -36.2908 -36.2908 -36.2908
   -36.2859 -36.2859 -36.2846 -36.2846 -36.2846 -36.2832 -36.2832 -36.2831
    -5.8987  -4.9750  -4.4944  -4.4944  -4.4944  -4.4459  -4.4459  -4.4459
     1.2533   1.2533   1.2533   1.3224   1.3224   1.3407   1.3407   1.3407
     1.3851   1.4485   1.4485   2.0509   2.7757   2.7757   2.7757   4.1520
     4.1520   4.5087   4.5087   5.1236   5.1236   5.1236   5.5968   5.5968
     5.5968   5.6676   5.6676   5.6676   6.0045   6.3446   6.3446   6.3446
     6.3957   6.3957   6.7605   6.7606   6.7606   6.8637   6.8637   6.8637
     6.9632   6.9632   6.9633   7.9022   7.9022   7.9022   8.5889   9.2974
     9.6158   9.6158   9.6159   9.9992   9.9992   9.9992  10.1005  10.1005
    11.5732  11.5732  11.5732  12.6145  12.6145  12.6145  12.6751  14.3870
    14.3870  14.3870  14.8868  14.8868  15.8587  15.8587  15.8587  16.0973
    16.0973  16.0973  16.1744  16.1744  18.2555  18.2656  18.9971  18.9971
    18.9971  19.9569  19.9569  19.9569  20.1266  20.3242  20.3242  20.6458

          k =-0.2309 0.0816 0.0000 ( 13128 PWs)   bands (ev):

[...]

 ------ SPIN DOWN ----------

[...]

     the Fermi energy is     7.9959 ev

!    total energy              =   -1502.14964752 Ry
     estimated scf accuracy    <       0.00000002 Ry
     smearing contrib. (-TS)   =       0.22683519 Ry
     internal energy E=F+TS    =   -1502.37648270 Ry

     The total energy is F=E-TS. E is the sum of the following terms:
     one-electron contribution =    -906.33955717 Ry
     hartree contribution      =     488.65696726 Ry
     xc contribution           =    -219.18645583 Ry
     ewald contribution        =    -865.50743696 Ry

[...]

     convergence has been achieved in  17 iterations

     Forces acting on atoms (cartesian axes, Ry/au):

     atom    1 type  1   force =     0.00000000    0.00000000    0.00000000
     atom    2 type  1   force =     0.00000000    0.00000000    0.00000000
     atom    3 type  1   force =    -0.00000000   -0.00000000   -0.00000000
     atom    4 type  1   force =     0.00000000    0.00000000    0.00000000
     atom    5 type  2   force =     0.00000838   -0.00000372    0.00000000
     atom    6 type  2   force =    -0.00000838    0.00000372    0.00000000
     atom    7 type  3   force =    -0.00272485   -0.00193266   -0.00473072
     atom    8 type  3   force =     0.00545696   -0.00192841    0.00000000
     atom    9 type  3   force =     0.00272485    0.00193266    0.00473072
     atom   10 type  3   force =    -0.00272485   -0.00193266    0.00473072
     atom   11 type  3   force =     0.00000638    0.00579051    0.00000000
     atom   12 type  3   force =     0.00272485    0.00193266   -0.00473072
     atom   13 type  3   force =    -0.00000638   -0.00579051    0.00000000
     atom   14 type  3   force =    -0.00545696    0.00192841    0.00000000

     Total force =     0.016377     Total SCF correction =     0.000133

     BFGS Geometry Optimization
     Energy error            =      0.0E+00
     Gradient error          =      5.8E-03

     number of scf cycles    =   1
     number of bfgs steps    =   0

     energy   new            =   -1502.1496475154 Ry

     new trust radius        =       0.0057913447 bohr
     new conv_thr            =       0.0000002800 Ry

ATOMIC_POSITIONS (crystal)
Cr            0.8750000000        0.3750000000        0.3750000000
Cr            0.3750000000        0.3750000000        0.8750000000
Cr            0.3750000000        0.3750000000        0.3750000000
Cr            0.3750000000        0.8750000000        0.3750000000
Hg            0.0000002279        0.0000002279       -0.0000007684
Hg            0.7499997721        0.7499997721        0.7500007684
Se            0.5745543100        0.1418155192        0.1418147550
Se            0.1418151618        0.1418151618        0.5745546181
Se            0.1754456900        0.6081844808        0.6081852450
Se            0.1418155192        0.5745543100        0.1418147550
Se            0.1418154594        0.1418154594        0.1418147014
Se            0.6081844808        0.1754456900        0.6081852450
Se            0.6081845406        0.6081845406        0.6081852986
Se            0.6081848382        0.6081848382        0.1754453819

     Writing output data file /home/hafidz/Documents/PKL/Kalkulasi-DFT/Project-Shift-Current-Multi-Weyl-Semimetal/Cr2HgSe4/Primitive-2/outdir/Cr2HgSe4-SC-Project-2.save/
     NEW-OLD atomic charge density approx. for the potential

     Check: negative core charge=   -0.000002
     Generating pointlists ...

[...]

     Threshold (ethr) on eigenvalues was too large:
     Diagonalizing with lowered threshold

     Davidson diagonalization with overlap
     ethr =  2.68E-08,  avg # of iterations =  2.0

[...]

     Total force =     0.012237     Total SCF correction =     0.000355
     Energy error            =      2.4E-04
     Gradient error          =      4.3E-03

[...]

     energy   old            =   -1502.1496475154 Ry
     energy   new            =   -1502.1498827816 Ry

     CASE: energy  _new < energy  _old

[...]

     Total force =     0.001359     Total SCF correction =     0.000024
     Energy error            =      1.3E-04
     Gradient error          =      4.8E-04

     number of scf cycles    =   4
     number of bfgs steps    =   3

     energy   old            =   -1502.1500655450 Ry
     energy   new            =   -1502.1501912591 Ry

     CASE: energy  _new < energy  _old

     new trust radius        =       0.0019707722 bohr
     new conv_thr            =       0.0000000028 Ry

ATOMIC_POSITIONS (crystal)
Cr            0.8750000000        0.3750000000        0.3750000000
Cr            0.3750000000        0.3750000000        0.8750000000
Cr            0.3750000000        0.3750000000        0.3750000000
Cr            0.3750000000        0.8750000000        0.3750000000
Hg            0.0000005093        0.0000005093       -0.0000015105
Hg            0.7499994907        0.7499994907        0.7500015105
Se            0.5730511449        0.1423162236        0.1423165298
Se            0.1423165062        0.1423165062        0.5730506013
Se            0.1769488551        0.6076837764        0.6076834702
Se            0.1423162236        0.5730511449        0.1423165298
Se            0.1423161545        0.1423161545        0.1423164414
Se            0.6076837764        0.1769488551        0.6076834702
Se            0.6076838455        0.6076838455        0.6076835586
Se            0.6076834938        0.6076834938        0.1769493987

     Writing output data file /home/hafidz/Documents/PKL/Kalkulasi-DFT/Project-Shift-Current-Multi-Weyl-Semimetal/Cr2HgSe4/Primitive-2/outdir/Cr2HgSe4-SC-Project-2.save/
     NEW-OLD atomic charge density approx. for the potential

     Check: negative core charge=   -0.000002
     Generating pointlists ...

     Self-consistent Calculation

[...]

     Threshold (ethr) on eigenvalues was too large:
     Diagonalizing with lowered threshold

     Davidson diagonalization with overlap
     ethr =  3.15E-09,  avg # of iterations =  2.0

[...]

     total energy              =   -1502.15019476 Ry
     estimated scf accuracy    <          4.2E-09 Ry

[...]

     iteration # 11     ecut=    50.00 Ry     beta= 0.40
     Davidson diagonalization with overlap
     ethr =  2.93E-12,  avg # of iterations =  2.0

     Magnetic moment per site:
     atom:    1    charge:   12.1460    magn:    2.6883    constr:    0.0000
     atom:    2    charge:   12.1460    magn:    2.6883    constr:    0.0000
     atom:    3    charge:   12.1460    magn:    2.6883    constr:    0.0000
     atom:    4    charge:   12.1460    magn:    2.6883    constr:    0.0000
     atom:    5    charge:   17.5853    magn:   -0.0052    constr:    0.0000
     atom:    6    charge:   17.5853    magn:   -0.0052    constr:    0.0000
     atom:    7    charge:    3.8929    magn:   -0.1450    constr:    0.0000
     atom:    8    charge:    3.8929    magn:   -0.1450    constr:    0.0000
     atom:    9    charge:    3.8929    magn:   -0.1450    constr:    0.0000
     atom:   10    charge:    3.8929    magn:   -0.1450    constr:    0.0000
     atom:   11    charge:    3.8929    magn:   -0.1450    constr:    0.0000
     atom:   12    charge:    3.8929    magn:   -0.1450    constr:    0.0000
     atom:   13    charge:    3.8929    magn:   -0.1450    constr:    0.0000
     atom:   14    charge:    3.8929    magn:   -0.1450    constr:    0.0000

     End of self-consistent calculation

 ------ SPIN UP ------------

[...]

 ------ SPIN DOWN ----------

[...]

          k = 0.0000 0.0000 0.8000 ( 13050 PWs)   bands (ev):

[...]

          k =-0.4619 0.1633 0.8000 ( 13046 PWs)   bands (ev):

  -106.8075-106.8075 -62.0190 -62.0189 -62.0187 -62.0187 -55.1175 -55.1173
   -55.1165 -55.1164 -55.1161 -55.1157 -33.3473 -33.3430 -33.3395 -33.3395
   -33.2699 -33.2696 -33.2693 -33.2684 -33.2681 -33.2675 -33.2672 -33.2662
    -5.7030  -5.4072  -4.8599  -4.6880  -4.6708  -4.6039  -4.5673  -4.5635
     1.0280   1.0974   1.2527   1.2613   1.3017   1.3277   1.4030   1.4034
     1.4502   1.4512   2.5712   2.6674   3.6601   3.7899   3.9634   4.1392
     4.3252   4.4319   4.6002   4.7879   4.9051   5.0043   5.2273   5.5473
     5.6138   5.6636   5.6730   5.9290   6.0563   6.4206   6.5504   6.7117
     6.8129   7.2364   8.9385   9.1015   9.2489   9.3774   9.6063   9.6197
     9.6991   9.7339   9.7780   9.8332   9.9351   9.9358  10.2327  10.3856
    10.5761  10.5964  10.6829  10.6902  10.8305  11.1049  11.3195  11.4364
    13.1170  13.4578  13.6457  13.8005  14.0207  14.3268  14.3282  14.5531
    14.8940  15.1039  15.4118  15.4442  15.7976  16.3640  16.5527  16.6254
    16.6344  16.9427  17.0942  17.5181  17.5753  17.6258  17.6355  17.8672
    18.0444  18.1890  18.1934  18.4541  18.8307  18.9091  19.1475  19.1766

     the Fermi energy is     8.0050 ev

!    total energy              =   -1502.15019505 Ry
     estimated scf accuracy    <          1.0E-09 Ry
     smearing contrib. (-TS)   =       0.22146356 Ry
     internal energy E=F+TS    =   -1502.37165861 Ry

     The total energy is F=E-TS. E is the sum of the following terms:
     one-electron contribution =    -907.51702905 Ry
     hartree contribution      =     489.28650535 Ry
     xc contribution           =    -219.20381056 Ry
     ewald contribution        =    -864.93732435 Ry

     total magnetization       =    10.40 Bohr mag/cell
     absolute magnetization    =    13.64 Bohr mag/cell

     convergence has been achieved in  11 iterations

     Forces acting on atoms (cartesian axes, Ry/au):

     atom    1 type  1   force =     0.00000000    0.00000000    0.00000000
     atom    2 type  1   force =     0.00000000    0.00000000    0.00000000
     atom    3 type  1   force =     0.00000000    0.00000000    0.00000000
     atom    4 type  1   force =     0.00000000    0.00000000    0.00000000
     atom    5 type  2   force =    -0.00000319    0.00000091    0.00000000
     atom    6 type  2   force =     0.00000319   -0.00000091    0.00000000
     atom    7 type  3   force =     0.00000038    0.00000066    0.00000052
     atom    8 type  3   force =    -0.00000041    0.00000067    0.00000000
     atom    9 type  3   force =    -0.00000038   -0.00000066   -0.00000052
     atom   10 type  3   force =     0.00000038    0.00000066   -0.00000052
     atom   11 type  3   force =     0.00000011   -0.00000081    0.00000000
     atom   12 type  3   force =    -0.00000038   -0.00000066    0.00000052
     atom   13 type  3   force =    -0.00000011    0.00000081    0.00000000
     atom   14 type  3   force =     0.00000041   -0.00000067    0.00000000

     Total force =     0.000005     Total SCF correction =     0.000023
     SCF correction compared to forces is large: reduce conv_thr to get better values
     Energy error            =      3.8E-06
     Gradient error          =      3.2E-06

     bfgs converged in   5 scf cycles and   4 bfgs steps
     (criteria: energy <  1.4E-04 Ry, force <  1.0E-04 Ry/Bohr)

     End of BFGS Geometry Optimization

     Final energy   =   -1502.1501950522 Ry

     File /home/hafidz/Documents/PKL/Kalkulasi-DFT/Project-Shift-Current-Multi-Weyl-Semimetal/Cr2HgSe4/Primitive-2/outdir/Cr2HgSe4-SC-Project-2.bfgs deleted, as requested
Begin final coordinates

ATOMIC_POSITIONS (crystal)
Cr            0.8750000000        0.3750000000        0.3750000000
Cr            0.3750000000        0.3750000000        0.8750000000
Cr            0.3750000000        0.3750000000        0.3750000000
Cr            0.3750000000        0.8750000000        0.3750000000
Hg            0.0000005093        0.0000005093       -0.0000015105
Hg            0.7499994907        0.7499994907        0.7500015105
Se            0.5730511449        0.1423162236        0.1423165298
Se            0.1423165062        0.1423165062        0.5730506013
Se            0.1769488551        0.6076837764        0.6076834702
Se            0.1423162236        0.5730511449        0.1423165298
Se            0.1423161545        0.1423161545        0.1423164414
Se            0.6076837764        0.1769488551        0.6076834702
Se            0.6076838455        0.6076838455        0.6076835586
Se            0.6076834938        0.6076834938        0.1769493987
End final coordinates

     Writing output data file /home/hafidz/Documents/PKL/Kalkulasi-DFT/Project-Shift-Current-Multi-Weyl-Semimetal/Cr2HgSe4/Primitive-2/outdir/Cr2HgSe4-SC-Project-2.save/

     General routines

     Parallel routines

   This run was terminated on:  20: 5:26   7Jul2024

   JOB DONE.